benchmarks_vrp/CMT2/min_c/CMT2_4.vrp
NAME: CMT2_4
TYPE: CVRP
COMMENT: 835.26 - Cluster Nr.4
DIMENSION: 11
CAPACITY: 140
EDGE_WEIGHT_TYPE: EUC_2D
NODE_COORD_TYPE: TWOD_COORDS
NODE_COORD_SECTION: 
4 54 10
2 66 14
3 66 8
10 62 24
8 65 27
6 40 40
7 59 5
11 55 20
5 64 4
1 50 15
9 60 15
DEPOT_SECTION: 
6
-1
DEMAND_SECTION: 
2 22
6 0
4 12
3 11
1 19
7 3
5 13
9 14
11 21
10 8
8 14
EOF
