benchmarks_vrp/CMT2/min_c/CMT2_4.tour
NAME: CMT2_4 solution
TYPE: TOUR
TOUR_SECTION:
6 8 10 9 2 3 5 7 4 1 11 -1
-1
EOF